
Gurobi 11.0.2 (linux64, gurobi_cl) logging started Thu Feb 13 14:48:30 2025

Set parameter WLSAccessID
Set parameter WLSSecret
Set parameter LicenseID to value 2525558
Set parameter LogFile to value "gurobi.log"
Using license file /home/johannes/Documents/UK-Essen-Cloud/Documents/Keys/gurobi.lic

Gurobi 11.0.2 (linux64, gurobi_cl) logging started Thu Feb 13 14:49:14 2025

Set parameter WLSAccessID
Set parameter WLSSecret
Set parameter LicenseID to value 2525558
Set parameter LogFile to value "gurobi.log"
Using license file /home/johannes/Documents/UK-Essen-Cloud/Documents/Keys/gurobi.lic

Gurobi 11.0.2 (linux64, gurobi_cl) logging started Thu Feb 13 14:59:19 2025

Set parameter WLSAccessID
Set parameter WLSSecret
Set parameter LicenseID to value 2525558
Set parameter LogFile to value "gurobi.log"
Using license file /home/johannes/Documents/UK-Essen-Cloud/Documents/Keys/gurobi.lic

Gurobi 11.0.2 (linux64, gurobi_cl) logging started Thu Feb 13 14:59:28 2025

Set parameter WLSAccessID
Set parameter WLSSecret
Set parameter LicenseID to value 2525558
Set parameter LogFile to value "gurobi.log"
Using license file /home/johannes/Documents/UK-Essen-Cloud/Documents/Keys/gurobi.lic

Gurobi 11.0.2 (linux64, gurobi_cl) logging started Thu Feb 13 15:00:51 2025

Set parameter WLSAccessID
Set parameter WLSSecret
Set parameter LicenseID to value 2525558
Set parameter LogFile to value "gurobi.log"
Using license file /home/johannes/Documents/UK-Essen-Cloud/Documents/Keys/gurobi.lic

Gurobi 11.0.2 (linux64, gurobi_cl) logging started Thu Feb 13 15:01:08 2025

Set parameter WLSAccessID
Set parameter WLSSecret
Set parameter LicenseID to value 2525558
Set parameter LogFile to value "gurobi.log"
Using license file /home/johannes/Documents/UK-Essen-Cloud/Documents/Keys/gurobi.lic

Gurobi 11.0.2 (linux64, gurobi_cl) logging started Thu Feb 13 15:01:49 2025

Set parameter WLSAccessID
Set parameter WLSSecret
Set parameter LicenseID to value 2525558
Set parameter LogFile to value "gurobi.log"
Using license file /home/johannes/Documents/UK-Essen-Cloud/Documents/Keys/gurobi.lic

Gurobi 11.0.2 (linux64, gurobi_cl) logging started Thu Feb 13 15:02:42 2025

Set parameter WLSAccessID
Set parameter WLSSecret
Set parameter LicenseID to value 2525558
Set parameter LogFile to value "gurobi.log"
Using license file /home/johannes/Documents/UK-Essen-Cloud/Documents/Keys/gurobi.lic

Gurobi 11.0.2 (linux64, gurobi_cl) logging started Thu Feb 13 15:04:20 2025

Set parameter WLSAccessID
Set parameter WLSSecret
Set parameter LicenseID to value 2525558
Set parameter LogFile to value "gurobi.log"
Using license file /home/johannes/Documents/UK-Essen-Cloud/Documents/Keys/gurobi.lic

Gurobi 11.0.2 (linux64, gurobi_cl) logging started Thu Feb 13 15:04:52 2025

Set parameter WLSAccessID
Set parameter WLSSecret
Set parameter LicenseID to value 2525558
Set parameter LogFile to value "gurobi.log"
Using license file /home/johannes/Documents/UK-Essen-Cloud/Documents/Keys/gurobi.lic

Gurobi 11.0.2 (linux64, gurobi_cl) logging started Thu Feb 13 15:05:15 2025

Set parameter WLSAccessID
Set parameter WLSSecret
Set parameter LicenseID to value 2525558
Set parameter LogFile to value "gurobi.log"
Using license file /home/johannes/Documents/UK-Essen-Cloud/Documents/Keys/gurobi.lic

Gurobi 11.0.2 (linux64, gurobi_cl) logging started Thu Feb 13 15:07:27 2025

Set parameter WLSAccessID
Set parameter WLSSecret
Set parameter LicenseID to value 2525558
Set parameter LogFile to value "gurobi.log"
Using license file /home/johannes/Documents/UK-Essen-Cloud/Documents/Keys/gurobi.lic

Gurobi 11.0.2 (linux64, gurobi_cl) logging started Thu Feb 13 15:08:16 2025

Set parameter WLSAccessID
Set parameter WLSSecret
Set parameter LicenseID to value 2525558
Set parameter LogFile to value "gurobi.log"
Using license file /home/johannes/Documents/UK-Essen-Cloud/Documents/Keys/gurobi.lic

Gurobi 11.0.2 (linux64, gurobi_cl) logging started Thu Feb 13 15:10:45 2025

Set parameter WLSAccessID
Set parameter WLSSecret
Set parameter LicenseID to value 2525558
Set parameter LogFile to value "gurobi.log"
Using license file /home/johannes/Documents/UK-Essen-Cloud/Documents/Keys/gurobi.lic

Gurobi 11.0.2 (linux64, gurobi_cl) logging started Thu Feb 13 15:12:05 2025

Set parameter WLSAccessID
Set parameter WLSSecret
Set parameter LicenseID to value 2525558
Set parameter LogFile to value "gurobi.log"
Using license file /home/johannes/Documents/UK-Essen-Cloud/Documents/Keys/gurobi.lic

Gurobi 11.0.2 (linux64, gurobi_cl) logging started Thu Feb 13 15:13:16 2025

Set parameter WLSAccessID
Set parameter WLSSecret
Set parameter LicenseID to value 2525558
Set parameter LogFile to value "gurobi.log"
Using license file /home/johannes/Documents/UK-Essen-Cloud/Documents/Keys/gurobi.lic

Gurobi 11.0.2 (linux64, gurobi_cl) logging started Thu Feb 13 15:13:38 2025

Set parameter WLSAccessID
Set parameter WLSSecret
Set parameter LicenseID to value 2525558
Set parameter LogFile to value "gurobi.log"
Using license file /home/johannes/Documents/UK-Essen-Cloud/Documents/Keys/gurobi.lic

Gurobi 11.0.2 (linux64, gurobi_cl) logging started Thu Feb 13 15:14:22 2025

Set parameter WLSAccessID
Set parameter WLSSecret
Set parameter LicenseID to value 2525558
Set parameter LogFile to value "gurobi.log"
Using license file /home/johannes/Documents/UK-Essen-Cloud/Documents/Keys/gurobi.lic

Gurobi 11.0.2 (linux64, gurobi_cl) logging started Thu Feb 13 15:15:17 2025

Set parameter WLSAccessID
Set parameter WLSSecret
Set parameter LicenseID to value 2525558
Set parameter LogFile to value "gurobi.log"
Using license file /home/johannes/Documents/UK-Essen-Cloud/Documents/Keys/gurobi.lic

Gurobi 11.0.2 (linux64, gurobi_cl) logging started Thu Feb 13 15:16:26 2025

Set parameter WLSAccessID
Set parameter WLSSecret
Set parameter LicenseID to value 2525558
Set parameter LogFile to value "gurobi.log"
Using license file /home/johannes/Documents/UK-Essen-Cloud/Documents/Keys/gurobi.lic

Gurobi 11.0.2 (linux64, gurobi_cl) logging started Thu Feb 13 15:16:58 2025

Set parameter WLSAccessID
Set parameter WLSSecret
Set parameter LicenseID to value 2525558
Set parameter LogFile to value "gurobi.log"
Using license file /home/johannes/Documents/UK-Essen-Cloud/Documents/Keys/gurobi.lic

Gurobi 11.0.2 (linux64, gurobi_cl) logging started Thu Feb 13 15:17:18 2025

Set parameter WLSAccessID
Set parameter WLSSecret
Set parameter LicenseID to value 2525558
Set parameter LogFile to value "gurobi.log"
Using license file /home/johannes/Documents/UK-Essen-Cloud/Documents/Keys/gurobi.lic

Gurobi 11.0.2 (linux64, gurobi_cl) logging started Thu Feb 13 15:17:52 2025

Set parameter WLSAccessID
Set parameter WLSSecret
Set parameter LicenseID to value 2525558
Set parameter LogFile to value "gurobi.log"
Using license file /home/johannes/Documents/UK-Essen-Cloud/Documents/Keys/gurobi.lic

Gurobi 11.0.2 (linux64, gurobi_cl) logging started Thu Feb 13 15:21:35 2025

Set parameter WLSAccessID
Set parameter WLSSecret
Set parameter LicenseID to value 2525558
Set parameter LogFile to value "gurobi.log"
Using license file /home/johannes/Documents/UK-Essen-Cloud/Documents/Keys/gurobi.lic

Gurobi 11.0.2 (linux64, gurobi_cl) logging started Thu Feb 13 15:21:47 2025

Set parameter WLSAccessID
Set parameter WLSSecret
Set parameter LicenseID to value 2525558
Set parameter LogFile to value "gurobi.log"
Using license file /home/johannes/Documents/UK-Essen-Cloud/Documents/Keys/gurobi.lic

Gurobi 11.0.2 (linux64, gurobi_cl) logging started Thu Feb 13 15:23:51 2025

Set parameter WLSAccessID
Set parameter WLSSecret
Set parameter LicenseID to value 2525558
Set parameter LogFile to value "gurobi.log"
Using license file /home/johannes/Documents/UK-Essen-Cloud/Documents/Keys/gurobi.lic

Gurobi 11.0.2 (linux64, gurobi_cl) logging started Thu Feb 13 15:24:00 2025

Set parameter WLSAccessID
Set parameter WLSSecret
Set parameter LicenseID to value 2525558
Set parameter LogFile to value "gurobi.log"
Using license file /home/johannes/Documents/UK-Essen-Cloud/Documents/Keys/gurobi.lic

Gurobi 11.0.2 (linux64, gurobi_cl) logging started Thu Feb 13 15:30:42 2025

Set parameter WLSAccessID
Set parameter WLSSecret
Set parameter LicenseID to value 2525558
Set parameter LogFile to value "gurobi.log"
Using license file /home/johannes/Documents/UK-Essen-Cloud/Documents/Keys/gurobi.lic

Gurobi 11.0.2 (linux64, gurobi_cl) logging started Thu Feb 13 16:06:10 2025

Set parameter WLSAccessID
Set parameter WLSSecret
Set parameter LicenseID to value 2525558
Set parameter LogFile to value "gurobi.log"
Using license file /home/johannes/Documents/UK-Essen-Cloud/Documents/Keys/gurobi.lic

Gurobi 11.0.2 (linux64, gurobi_cl) logging started Thu Feb 13 16:08:14 2025

Set parameter WLSAccessID
Set parameter WLSSecret
Set parameter LicenseID to value 2525558
Set parameter LogFile to value "gurobi.log"
Using license file /home/johannes/Documents/UK-Essen-Cloud/Documents/Keys/gurobi.lic

Gurobi 11.0.2 (linux64, gurobi_cl) logging started Thu Feb 13 16:12:55 2025

Set parameter WLSAccessID
Set parameter WLSSecret
Set parameter LicenseID to value 2525558
Set parameter LogFile to value "gurobi.log"
Using license file /home/johannes/Documents/UK-Essen-Cloud/Documents/Keys/gurobi.lic

Gurobi 11.0.2 (linux64, gurobi_cl) logging started Thu Feb 13 16:13:06 2025

Set parameter WLSAccessID
Set parameter WLSSecret
Set parameter LicenseID to value 2525558
Set parameter LogFile to value "gurobi.log"
Using license file /home/johannes/Documents/UK-Essen-Cloud/Documents/Keys/gurobi.lic

Gurobi 11.0.2 (linux64, gurobi_cl) logging started Thu Feb 13 16:14:46 2025

Set parameter WLSAccessID
Set parameter WLSSecret
Set parameter LicenseID to value 2525558
Set parameter LogFile to value "gurobi.log"
Using license file /home/johannes/Documents/UK-Essen-Cloud/Documents/Keys/gurobi.lic

Gurobi 11.0.2 (linux64, gurobi_cl) logging started Thu Feb 13 16:14:53 2025

Set parameter WLSAccessID
Set parameter WLSSecret
Set parameter LicenseID to value 2525558
Set parameter LogFile to value "gurobi.log"
Using license file /home/johannes/Documents/UK-Essen-Cloud/Documents/Keys/gurobi.lic

Gurobi 11.0.2 (linux64, gurobi_cl) logging started Thu Feb 13 16:16:43 2025

Set parameter WLSAccessID
Set parameter WLSSecret
Set parameter LicenseID to value 2525558
Set parameter LogFile to value "gurobi.log"
Using license file /home/johannes/Documents/UK-Essen-Cloud/Documents/Keys/gurobi.lic

Gurobi 11.0.2 (linux64, gurobi_cl) logging started Thu Feb 13 16:19:29 2025

Set parameter WLSAccessID
Set parameter WLSSecret
Set parameter LicenseID to value 2525558
Set parameter LogFile to value "gurobi.log"
Using license file /home/johannes/Documents/UK-Essen-Cloud/Documents/Keys/gurobi.lic

Gurobi 11.0.2 (linux64, gurobi_cl) logging started Thu Feb 13 16:20:25 2025

Set parameter WLSAccessID
Set parameter WLSSecret
Set parameter LicenseID to value 2525558
Set parameter LogFile to value "gurobi.log"
Using license file /home/johannes/Documents/UK-Essen-Cloud/Documents/Keys/gurobi.lic

Gurobi 11.0.2 (linux64, gurobi_cl) logging started Thu Feb 13 16:20:39 2025

Set parameter WLSAccessID
Set parameter WLSSecret
Set parameter LicenseID to value 2525558
Set parameter LogFile to value "gurobi.log"
Using license file /home/johannes/Documents/UK-Essen-Cloud/Documents/Keys/gurobi.lic

Gurobi 11.0.2 (linux64, gurobi_cl) logging started Thu Feb 13 16:21:07 2025

Set parameter WLSAccessID
Set parameter WLSSecret
Set parameter LicenseID to value 2525558
Set parameter LogFile to value "gurobi.log"
Using license file /home/johannes/Documents/UK-Essen-Cloud/Documents/Keys/gurobi.lic

Gurobi 11.0.2 (linux64, gurobi_cl) logging started Thu Feb 13 16:21:31 2025

Set parameter WLSAccessID
Set parameter WLSSecret
Set parameter LicenseID to value 2525558
Set parameter LogFile to value "gurobi.log"
Using license file /home/johannes/Documents/UK-Essen-Cloud/Documents/Keys/gurobi.lic

Gurobi 11.0.2 (linux64, gurobi_cl) logging started Thu Feb 13 16:21:45 2025

Set parameter WLSAccessID
Set parameter WLSSecret
Set parameter LicenseID to value 2525558
Set parameter LogFile to value "gurobi.log"
Using license file /home/johannes/Documents/UK-Essen-Cloud/Documents/Keys/gurobi.lic

Gurobi 11.0.2 (linux64, gurobi_cl) logging started Thu Feb 13 16:28:54 2025

Set parameter WLSAccessID
Set parameter WLSSecret
Set parameter LicenseID to value 2525558
Set parameter LogFile to value "gurobi.log"
Using license file /home/johannes/Documents/UK-Essen-Cloud/Documents/Keys/gurobi.lic

Gurobi 11.0.2 (linux64, gurobi_cl) logging started Thu Feb 13 16:32:59 2025

Set parameter WLSAccessID
Set parameter WLSSecret
Set parameter LicenseID to value 2525558
Set parameter LogFile to value "gurobi.log"
Using license file /home/johannes/Documents/UK-Essen-Cloud/Documents/Keys/gurobi.lic

Gurobi 11.0.2 (linux64, gurobi_cl) logging started Thu Feb 13 16:33:50 2025

Set parameter WLSAccessID
Set parameter WLSSecret
Set parameter LicenseID to value 2525558
Set parameter LogFile to value "gurobi.log"
Using license file /home/johannes/Documents/UK-Essen-Cloud/Documents/Keys/gurobi.lic

Gurobi 11.0.2 (linux64, gurobi_cl) logging started Thu Feb 13 16:35:08 2025

Set parameter WLSAccessID
Set parameter WLSSecret
Set parameter LicenseID to value 2525558
Set parameter LogFile to value "gurobi.log"
Using license file /home/johannes/Documents/UK-Essen-Cloud/Documents/Keys/gurobi.lic

Gurobi 11.0.2 (linux64, gurobi_cl) logging started Thu Feb 13 16:35:14 2025

Set parameter WLSAccessID
Set parameter WLSSecret
Set parameter LicenseID to value 2525558
Set parameter LogFile to value "gurobi.log"
Using license file /home/johannes/Documents/UK-Essen-Cloud/Documents/Keys/gurobi.lic

Gurobi 11.0.2 (linux64, gurobi_cl) logging started Thu Feb 13 16:35:35 2025

Set parameter WLSAccessID
Set parameter WLSSecret
Set parameter LicenseID to value 2525558
Set parameter LogFile to value "gurobi.log"
Using license file /home/johannes/Documents/UK-Essen-Cloud/Documents/Keys/gurobi.lic

Gurobi 11.0.2 (linux64, gurobi_cl) logging started Thu Feb 13 16:37:23 2025

Set parameter WLSAccessID
Set parameter WLSSecret
Set parameter LicenseID to value 2525558
Set parameter LogFile to value "gurobi.log"
Using license file /home/johannes/Documents/UK-Essen-Cloud/Documents/Keys/gurobi.lic

Gurobi 11.0.2 (linux64, gurobi_cl) logging started Thu Feb 13 16:40:50 2025

Set parameter WLSAccessID
Set parameter WLSSecret
Set parameter LicenseID to value 2525558
Set parameter LogFile to value "gurobi.log"
Using license file /home/johannes/Documents/UK-Essen-Cloud/Documents/Keys/gurobi.lic

Gurobi 11.0.2 (linux64, gurobi_cl) logging started Thu Feb 13 16:41:16 2025

Set parameter WLSAccessID
Set parameter WLSSecret
Set parameter LicenseID to value 2525558
Set parameter LogFile to value "gurobi.log"
Using license file /home/johannes/Documents/UK-Essen-Cloud/Documents/Keys/gurobi.lic

Gurobi 11.0.2 (linux64, gurobi_cl) logging started Thu Feb 13 16:42:47 2025

Set parameter WLSAccessID
Set parameter WLSSecret
Set parameter LicenseID to value 2525558
Set parameter LogFile to value "gurobi.log"
Using license file /home/johannes/Documents/UK-Essen-Cloud/Documents/Keys/gurobi.lic

Gurobi 11.0.2 (linux64, gurobi_cl) logging started Thu Feb 13 16:44:36 2025

Set parameter WLSAccessID
Set parameter WLSSecret
Set parameter LicenseID to value 2525558
Set parameter LogFile to value "gurobi.log"
Using license file /home/johannes/Documents/UK-Essen-Cloud/Documents/Keys/gurobi.lic

Gurobi 11.0.2 (linux64, gurobi_cl) logging started Thu Feb 13 16:46:15 2025

Set parameter WLSAccessID
Set parameter WLSSecret
Set parameter LicenseID to value 2525558
Set parameter LogFile to value "gurobi.log"
Using license file /home/johannes/Documents/UK-Essen-Cloud/Documents/Keys/gurobi.lic

Gurobi 11.0.2 (linux64, gurobi_cl) logging started Thu Feb 13 16:46:36 2025

Set parameter WLSAccessID
Set parameter WLSSecret
Set parameter LicenseID to value 2525558
Set parameter LogFile to value "gurobi.log"
Using license file /home/johannes/Documents/UK-Essen-Cloud/Documents/Keys/gurobi.lic

Gurobi 11.0.2 (linux64, gurobi_cl) logging started Thu Feb 13 16:46:52 2025

Set parameter WLSAccessID
Set parameter WLSSecret
Set parameter LicenseID to value 2525558
Set parameter LogFile to value "gurobi.log"
Using license file /home/johannes/Documents/UK-Essen-Cloud/Documents/Keys/gurobi.lic

Gurobi 11.0.2 (linux64, gurobi_cl) logging started Fri Feb 14 10:33:19 2025

Set parameter WLSAccessID
Set parameter WLSSecret
Set parameter LicenseID to value 2525558
Set parameter LogFile to value "gurobi.log"
Using license file /home/johannes/Documents/UK-Essen-Cloud/Documents/Keys/gurobi.lic

Gurobi 11.0.2 (linux64, gurobi_cl) logging started Fri Feb 14 10:33:39 2025

Set parameter WLSAccessID
Set parameter WLSSecret
Set parameter LicenseID to value 2525558
Set parameter LogFile to value "gurobi.log"
Using license file /home/johannes/Documents/UK-Essen-Cloud/Documents/Keys/gurobi.lic

Gurobi 11.0.2 (linux64, gurobi_cl) logging started Fri Feb 14 10:35:30 2025

Set parameter WLSAccessID
Set parameter WLSSecret
Set parameter LicenseID to value 2525558
Set parameter LogFile to value "gurobi.log"
Using license file /home/johannes/Documents/UK-Essen-Cloud/Documents/Keys/gurobi.lic

Gurobi 11.0.2 (linux64, gurobi_cl) logging started Fri Feb 14 10:36:31 2025

Set parameter WLSAccessID
Set parameter WLSSecret
Set parameter LicenseID to value 2525558
Set parameter LogFile to value "gurobi.log"
Using license file /home/johannes/Documents/UK-Essen-Cloud/Documents/Keys/gurobi.lic

Gurobi 11.0.2 (linux64, gurobi_cl) logging started Fri Feb 14 10:36:43 2025

Set parameter WLSAccessID
Set parameter WLSSecret
Set parameter LicenseID to value 2525558
Set parameter LogFile to value "gurobi.log"
Using license file /home/johannes/Documents/UK-Essen-Cloud/Documents/Keys/gurobi.lic

Gurobi 11.0.2 (linux64, gurobi_cl) logging started Fri Feb 14 10:45:51 2025

Set parameter WLSAccessID
Set parameter WLSSecret
Set parameter LicenseID to value 2525558
Set parameter LogFile to value "gurobi.log"
Using license file /home/johannes/Documents/UK-Essen-Cloud/Documents/Keys/gurobi.lic

Gurobi 11.0.2 (linux64, gurobi_cl) logging started Fri Feb 14 11:11:41 2025

Set parameter WLSAccessID
Set parameter WLSSecret
Set parameter LicenseID to value 2525558
Set parameter LogFile to value "gurobi.log"
Using license file /home/johannes/Documents/UK-Essen-Cloud/Documents/Keys/gurobi.lic

Gurobi 11.0.2 (linux64, gurobi_cl) logging started Fri Feb 14 11:12:00 2025

Set parameter WLSAccessID
Set parameter WLSSecret
Set parameter LicenseID to value 2525558
Set parameter LogFile to value "gurobi.log"
Using license file /home/johannes/Documents/UK-Essen-Cloud/Documents/Keys/gurobi.lic

Gurobi 11.0.2 (linux64, gurobi_cl) logging started Fri Feb 14 11:12:11 2025

Set parameter WLSAccessID
Set parameter WLSSecret
Set parameter LicenseID to value 2525558
Set parameter LogFile to value "gurobi.log"
Using license file /home/johannes/Documents/UK-Essen-Cloud/Documents/Keys/gurobi.lic

Gurobi 11.0.2 (linux64, gurobi_cl) logging started Fri Feb 14 11:14:04 2025

Set parameter WLSAccessID
Set parameter WLSSecret
Set parameter LicenseID to value 2525558
Set parameter LogFile to value "gurobi.log"
Using license file /home/johannes/Documents/UK-Essen-Cloud/Documents/Keys/gurobi.lic

Gurobi 11.0.2 (linux64, gurobi_cl) logging started Fri Feb 14 11:14:12 2025

Set parameter WLSAccessID
Set parameter WLSSecret
Set parameter LicenseID to value 2525558
Set parameter LogFile to value "gurobi.log"
Using license file /home/johannes/Documents/UK-Essen-Cloud/Documents/Keys/gurobi.lic
